RT is False
Default write of storage_offers_DA.csv just to have a file (but constraint should be inactive)
Reading model...
...model read.
creating competitive generators file...
...competitive generators recorded.
Loading data...
.. day-ahead data with real-time VRE data read.
Compiling instance...
...instance created.
Creating Offer Mitigation (model will solve as dispatch if TRUE)...
Solving...

Welcome to IBM(R) ILOG(R) CPLEX(R) Interactive Optimizer 12.9.0.0
  with Simplex, Mixed Integer & Barrier Optimizers
5725-A06 5725-A29 5724-Y48 5724-Y49 5724-Y54 5724-Y55 5655-Y21
Copyright IBM Corp. 1988, 2019.  All Rights Reserved.

Type 'help' for a list of available commands.
Type 'help' followed by a command name for more
information on commands.

CPLEX> Logfile 'cplex.log' closed.
Logfile 'C:\Users\llavin\Desktop\test919\logs\tmpgoiaao2f.cplex.log' open.
CPLEX> New value for parallel optimization mode: -1
CPLEX> New value for mixed integer optimality gap tolerance: 0.01
CPLEX> New value for integrality tolerance: 1e-09
CPLEX> New value for feasibility tolerance: 0.01
CPLEX> New value for deterministic time limit in ticks: 75000
CPLEX> Problem 'C:\Users\llavin\Desktop\test919\logs\tmpq2llie5b.pyomo.lp' read.
Read time = 0.05 sec. (3.04 ticks)
CPLEX> Problem name         : C:\Users\llavin\Desktop\test919\logs\tmpq2llie5b.pyomo.lp
Objective sense      : Minimize
Variables            :   26081  [Nneg: 1,  Box: 21616,  Free: 4464]
Objective nonzeros   :    2496
Linear constraints   :   27515  [Less: 14006,  Greater: 4416,  Equal: 9093]
  Nonzeros           :   89219
  RHS nonzeros       :   12274

Variables            : Min LB: -5000.000        Max UB: 1000000.       
Objective nonzeros   : Min   : 15.73158         Max   : 124.0997       
Linear constraints   :
  Nonzeros           : Min   : 0.8500000        Max   : 3000.000       
  RHS nonzeros       : Min   : 0.008333333      Max   : 5000.000       
CPLEX> CPXPARAM_Parallel                                -1
CPXPARAM_Simplex_Tolerances_Feasibility          0.01
CPXPARAM_DetTimeLimit                            75000
CPXPARAM_MIP_Tolerances_MIPGap                   0.01
CPXPARAM_MIP_Tolerances_Integrality              1.0000000000000001e-09
Parallel mode: opportunistic, using up to 32 threads for concurrent optimization.
Tried aggregator 1 time.
LP Presolve eliminated 21377 rows and 15483 columns.
Aggregator did 746 substitutions.
Reduced LP has 5392 rows, 9852 columns, and 31785 nonzeros.
Presolve time = 0.06 sec. (30.20 ticks)
Symmetry aggregator did 5563 additional substitutions.

Iteration log . . .
Iteration:     1   Dual objective     =             0.000000
Perturbation started.
Iteration:   101   Dual objective     =             0.000000
Iteration:   339   Dual objective     =             1.408481
Iteration:   599   Dual objective     =             1.976372
Iteration:   854   Dual objective     =             2.111130
Iteration:  1061   Dual objective     =             2.226714
Iteration:  1342   Dual objective     =             2.274618
Iteration:  1587   Dual objective     =             2.302727
Iteration:  1800   Dual objective     =             2.323512
Iteration:  2018   Dual objective     =            98.850122
Iteration:  2216   Dual objective     =            98.862278
Iteration:  2463   Dual objective     =          2097.362500
Iteration:  2747   Dual objective     =         15281.216082
Removing perturbation.
Dual superbasis not built.
Using devex.

Primal simplex solved model.


Primal simplex - Optimal:  Objective =  1.5971772739e+04
Solution time =    0.17 sec.  Iterations = 1442 (1017)
Deterministic time = 76.52 ticks  (444.89 ticks/sec)

CPLEX> Solution written to file 'C:\Users\llavin\Desktop\test919\logs\tmp9rhmx7mt.cplex.sol'.
CPLEX> Exporting results... 
...storage offer mitigation file created
Converting model to MPEC...
...converted
NOTE: initial MIP solve with only storage competitive to get feasible solution
Solving...

Welcome to IBM(R) ILOG(R) CPLEX(R) Interactive Optimizer 12.9.0.0
  with Simplex, Mixed Integer & Barrier Optimizers
5725-A06 5725-A29 5724-Y48 5724-Y49 5724-Y54 5724-Y55 5655-Y21
Copyright IBM Corp. 1988, 2019.  All Rights Reserved.

Type 'help' for a list of available commands.
Type 'help' followed by a command name for more
information on commands.

CPLEX> Logfile 'cplex.log' closed.
Logfile 'C:\Users\llavin\Desktop\test919\logs\tmptqygczoa.cplex.log' open.
CPLEX> New value for parallel optimization mode: -1
CPLEX> New value for mixed integer optimality gap tolerance: 0.01
CPLEX> New value for integrality tolerance: 1e-09
CPLEX> New value for feasibility tolerance: 0.01
CPLEX> New value for deterministic time limit in ticks: 75000
CPLEX> Problem 'C:\Users\llavin\Desktop\test919\logs\tmp5tdbfaiq.pyomo.lp' read.
Read time = 0.25 sec. (14.78 ticks)
CPLEX> Problem name         : C:\Users\llavin\Desktop\test919\logs\tmp5tdbfaiq.pyomo.lp
Objective sense      : Maximize
Variables            :   53805  [Nneg: 1,  Box: 22000,  Free: 4464,
                                 Binary: 27340]
Objective nonzeros   :    9032
Linear constraints   :  123205  [Less: 41346,  Greater: 59096,  Equal: 22763]
  Nonzeros           :  291756
  RHS nonzeros       :   67423

Variables            : Min LB: -5000.000        Max UB: 1000000.       
Objective nonzeros   : Min   : 0.008333333      Max   : 2500.000       
Linear constraints   :
  Nonzeros           : Min   : 0.008333333      Max   : 1000000.       
  RHS nonzeros       : Min   : 0.008333333      Max   : 1000000.       
CPLEX> CPXPARAM_Parallel                                -1
CPXPARAM_Simplex_Tolerances_Feasibility          0.01
CPXPARAM_DetTimeLimit                            75000
CPXPARAM_MIP_Tolerances_MIPGap                   0.01
CPXPARAM_MIP_Tolerances_Integrality              1.0000000000000001e-09
Tried aggregator 3 times.
MIP Presolve eliminated 88639 rows and 18966 columns.
MIP Presolve added 3382 rows and 0 columns.
MIP Presolve modified 24878 coefficients.
Aggregator did 13009 substitutions.
Reduced MIP has 24939 rows, 21277 columns, and 71123 nonzeros.
Reduced MIP has 8417 binaries, 0 generals, 0 SOSs, and 0 indicators.
Presolve time = 0.31 sec. (173.82 ticks)
Probing fixed 383 vars, tightened 2869 bounds.
Probing time = 1.23 sec. (894.24 ticks)
Tried aggregator 2 times.
MIP Presolve eliminated 867 rows and 767 columns.
MIP Presolve modified 2216 coefficients.
Aggregator did 32 substitutions.
Reduced MIP has 24040 rows, 20478 columns, and 68521 nonzeros.
Reduced MIP has 8034 binaries, 0 generals, 0 SOSs, and 0 indicators.
Presolve time = 0.09 sec. (69.19 ticks)
Probing time = 0.05 sec. (16.57 ticks)
Clique table members: 6388.
MIP emphasis: balance optimality and feasibility.
MIP search method: dynamic search.
Parallel mode: opportunistic, using up to 32 threads.
Root relaxation solution time = 0.39 sec. (489.05 ticks)

        Nodes                                         Cuts/
   Node  Left     Objective  IInf  Best Integer    Best Bound    ItCnt     Gap

      0     0        0.0000   630                      0.0000     5203         
*     0+    0                            0.0000        0.0000             0.00%
      0     0        cutoff              0.0000        0.0000     5203    0.00%
Elapsed time = 3.08 sec. (2106.06 ticks, tree = 0.01 MB, solutions = 1)

Root node processing (before b&c):
  Real time             =    3.09 sec. (2108.00 ticks)
Parallel b&c, 32 threads:
  Real time             =    0.00 sec. (0.00 ticks)
  Sync time (average)   =    0.00 sec.
  Wait time (average)   =    0.00 sec.
                          ------------
Total (root+branch&cut) =    3.09 sec. (2108.00 ticks)

Solution pool: 1 solution saved.

MIP - Integer optimal solution:  Objective =  1.5661498765e-09
Solution time =    3.11 sec.  Iterations = 5203  Nodes = 0
Deterministic time = 2108.16 ticks  (678.08 ticks/sec)

CPLEX> Incumbent solution written to file 'C:\Users\llavin\Desktop\test919\logs\tmpp2_g88iy.cplex.sol'.
CPLEX> NOTE: no warmstart specified for MIP iteration, default behavior is true
NOTE: resolving with all competitive generators using storage-only solution to warmstart
Solving...

Welcome to IBM(R) ILOG(R) CPLEX(R) Interactive Optimizer 12.9.0.0
  with Simplex, Mixed Integer & Barrier Optimizers
5725-A06 5725-A29 5724-Y48 5724-Y49 5724-Y54 5724-Y55 5655-Y21
Copyright IBM Corp. 1988, 2019.  All Rights Reserved.

Type 'help' for a list of available commands.
Type 'help' followed by a command name for more
information on commands.

CPLEX> Logfile 'cplex.log' closed.
Logfile 'C:\Users\llavin\Desktop\test919\logs\tmp0sifckrj.cplex.log' open.
CPLEX> New value for parallel optimization mode: -1
CPLEX> New value for mixed integer optimality gap tolerance: 0.01
CPLEX> New value for integrality tolerance: 1e-09
CPLEX> New value for feasibility tolerance: 0.01
CPLEX> New value for deterministic time limit in ticks: 75000
CPLEX> Problem 'C:\Users\llavin\Desktop\test919\logs\tmplqvnubgi.pyomo.lp' read.
Read time = 0.23 sec. (14.81 ticks)
CPLEX> MIP start file 'C:\Users\llavin\Desktop\test919\logs\tmpvn4nygx8.cplex.mst' read.
CPLEX> Problem name         : C:\Users\llavin\Desktop\test919\logs\tmplqvnubgi.pyomo.lp
Objective sense      : Maximize
Variables            :   54525  [Nneg: 1,  Box: 22720,  Free: 4464,
                                 Binary: 27340]
Objective nonzeros   :    9728
Linear constraints   :  123205  [Less: 41346,  Greater: 59096,  Equal: 22763]
  Nonzeros           :  291756
  RHS nonzeros       :   67423

Variables            : Min LB: -5000.000        Max UB: 1000000.       
Objective nonzeros   : Min   : 0.008333333      Max   : 2500.000       
Linear constraints   :
  Nonzeros           : Min   : 0.008333333      Max   : 1000000.       
  RHS nonzeros       : Min   : 0.008333333      Max   : 1000000.       
CPLEX> CPXPARAM_Parallel                                -1
CPXPARAM_Simplex_Tolerances_Feasibility          0.01
CPXPARAM_DetTimeLimit                            75000
CPXPARAM_MIP_Tolerances_MIPGap                   0.01
CPXPARAM_MIP_Tolerances_Integrality              1.0000000000000001e-09
Warning:  No solution found from 1 MIP starts.
Retaining values of one MIP start for possible repair.
Tried aggregator 3 times.
MIP Presolve eliminated 88639 rows and 19686 columns.
MIP Presolve added 3382 rows and 0 columns.
MIP Presolve modified 24878 coefficients.
Aggregator did 13009 substitutions.
Reduced MIP has 24939 rows, 21277 columns, and 71123 nonzeros.
Reduced MIP has 8417 binaries, 0 generals, 0 SOSs, and 0 indicators.
Presolve time = 0.30 sec. (174.18 ticks)
Probing fixed 383 vars, tightened 2869 bounds.
Probing time = 1.25 sec. (894.24 ticks)
Tried aggregator 2 times.
MIP Presolve eliminated 867 rows and 767 columns.
MIP Presolve modified 2216 coefficients.
Aggregator did 32 substitutions.
Reduced MIP has 24040 rows, 20478 columns, and 68521 nonzeros.
Reduced MIP has 8034 binaries, 0 generals, 0 SOSs, and 0 indicators.
Presolve time = 0.11 sec. (69.20 ticks)
Probing time = 0.05 sec. (16.57 ticks)
Clique table members: 6388.
MIP emphasis: balance optimality and feasibility.
MIP search method: dynamic search.
Parallel mode: opportunistic, using up to 32 threads.
Root relaxation solution time = 0.33 sec. (237.87 ticks)

        Nodes                                         Cuts/
   Node  Left     Objective  IInf  Best Integer    Best Bound    ItCnt     Gap

      0     0   129415.8461  1679                 129415.8461     5247         
      0     0   125341.4652   737                   Cuts: 563     5569         
      0     0   124198.8453   608                   Cuts: 234     5720         
      0     0   124115.5045   573                    Cuts: 86     5781         
      0     0   124115.5045   546                    Cuts: 83     5827         
      0     0   124115.5045   511                    Cuts: 67     5866         
      0     0   124115.5045   491                    Cuts: 55     5890         
      0     0   124115.5045   471                    Cuts: 50     5908         
      0     0   124115.5045   466                    Cuts: 24     5913         
      0     0   124115.5045   465                    Cuts: 20     5914         
Repair heuristic found nothing.
      0    20   108967.0115   450                    Cuts: 42     6367         
Elapsed time = 11.13 sec. (6597.46 ticks, tree = 0.02 MB, solutions = 0)
    350   108    infeasible                       111364.7602    11734         
    714   342    48144.0150   364                 111364.7602    20593         
   1245   406    52109.7248   355                 111364.7602    22250         
   1864   956    18899.1346   336                 111364.7602    33574         
   2542  1218   -47765.1492   292                 111364.7602    41283         
   3199  1366    15470.4622   306                 111364.7602    46050         
   3800  1597   -50431.2706   317                 111364.7602    51200         
   4517  2137     8558.5008   290                 111364.7602    55866         
   5531  3036   -51207.1162   298                 111364.7602    58782         
   9540  7208     5548.8697   258                 111364.7602    59724         
Elapsed time = 27.95 sec. (9701.62 ticks, tree = 64.92 MB, solutions = 0)
* 11241+ 8790                       -69619.6409   111364.7602           259.96%
  13798  4048    49827.1835   352     5360.5183   111053.8327    70805     --- 
  14200  4928    infeasible           5360.5183    33458.9216    91579  524.17%
  15536   400        cutoff           5360.5183    29122.1106   119180  443.27%
  16312   440        cutoff           7173.8427    18572.9206   133346  158.90%

GUB cover cuts applied:  2
Clique cuts applied:  1
Cover cuts applied:  21
Implied bound cuts applied:  33
Flow cuts applied:  313
Mixed integer rounding cuts applied:  65
Zero-half cuts applied:  1
Gomory fractional cuts applied:  115

Root node processing (before b&c):
  Real time             =    9.45 sec. (6564.77 ticks)
Parallel b&c, 32 threads:
  Real time             =   45.08 sec. (13915.27 ticks)
  Sync time (average)   =    2.65 sec.
  Wait time (average)   =    0.25 sec.
                          ------------
Total (root+branch&cut) =   54.53 sec. (20480.04 ticks)

Solution pool: 3 solutions saved.

MIP - Integer optimal, tolerance (0.01/1e-06):  Objective =  7.1738426980e+03
Current MIP best bound =  7.2352735032e+03 (gap = 61.4308, 0.86%)
Solution time =   54.55 sec.  Iterations = 149660  Nodes = 16751 (15)
Deterministic time = 20480.20 ticks  (375.47 ticks/sec)

CPLEX> Incumbent solution written to file 'C:\Users\llavin\Desktop\test919\logs\tmpjsnpme4g.cplex.sol'.
CPLEX> Exporting results... 
